0 0 0 0
0 1 1 0
0 2 0 0
0 3 0 0
0 4 0 1
0 5 0 3
0 6 0 3
0 7 2 3
0 8 0 1
0 9 0 9
0 10 1 4
0 11 0 9
0 12 0 9
0 13 2 6
0 14 0 13
0 15 0 15
0 16 1 14
0 17 0 15
0 18 1 10
0 19 0 16
0 20 0 17
0 21 2 4
0 22 2 9
0 23 0 17
0 24 0 22
0 25 1 17
0 26 1 15
0 27 0 24
0 28 0 25
0 29 2 23
0 30 1 23
0 31 0 29
